
Gurobi 9.1.2 (win64) logging started Tue Dec  7 01:15:13 2021

Gurobi Optimizer version 9.1.2 build v9.1.2rc0 (win64)
Thread count: 8 physical cores, 8 logical processors, using up to 8 threads
Optimize a model with 1 rows, 961 columns and 960 nonzeros
Model fingerprint: 0x06e9477d
Variable types: 1 continuous, 960 integer (960 binary)
Coefficient statistics:
  Matrix range     [1e+00, 1e+01]
  Objective range  [1e+00, 1e+00]
  Bounds range     [4e+02, 4e+02]
  RHS range        [1e+01, 1e+01]
Presolve time: 0.00s
Presolved: 1 rows, 961 columns, 960 nonzeros
Variable types: 1 continuous, 960 integer (960 binary)

Root simplex log...

Iteration    Objective       Primal Inf.    Dual Inf.      Time
       0   -4.0818034e+02   4.527349e-01   0.000000e+00     22s
       7   -2.7291668e+02   0.000000e+00   0.000000e+00     22s

Root relaxation: objective -2.729167e+02, 7 iterations, 0.00 seconds

    Nodes    |    Current Node    |     Objective Bounds      |     Work
 Expl Unexpl |  Obj  Depth IntInf | Incumbent    BestBd   Gap | It/Node Time

     0     0 -146.76104    0    2          - -146.76104      -     -   24s
H    0     0                       0.9848394 -146.76104      -     -   26s
H    0     0                       0.9845028 -146.76104      -     -   35s
     0     0 -112.36632    0    6    0.98450 -112.36632      -     -   41s
     0     0 -112.36632    0    6    0.98450 -112.36632      -     -   46s
     0     0 -100.53312    0    8    0.98450 -100.53312      -     -   49s
     0     0 -100.53312    0    8    0.98450 -100.53312      -     -   50s
H    0     0                       0.9834259 -100.53312      -     -   55s
H    0     0                       0.9819990 -100.53312      -     -   57s
     0     0  -99.00960    0    9    0.98200  -99.00960      -     -   57s
     0     0  -99.00960    0    9    0.98200  -99.00960      -     -   61s
     0     0  -97.81945    0   10    0.98200  -97.81945      -     -   64s
     0     0  -96.65712    0    9    0.98200  -96.65712  9943%     -   64s
     0     0  -96.65712    0    9    0.98200  -96.65712  9943%     -   66s
H    0     0                       0.9815794  -96.65712  9947%     -   70s
     0     0  -94.84030    0   10    0.98158  -94.84030  9762%     -   70s
     0     0  -94.68169    0   11    0.98158  -94.68169  9746%     -   70s
     0     0  -93.73262    0   10    0.98158  -93.73262  9649%     -   70s
     0     0  -93.73262    0   10    0.98158  -93.73262  9649%     -   81s
     0     0  -93.73262    0   10    0.98158  -93.73262  9649%     -   86s
     0     0  -93.66075    0   10    0.98158  -93.66075  9642%     -   86s
     0     0  -89.53875    0    8    0.98158  -89.53875  9222%     -   86s
     0     0  -89.53875    0    8    0.98158  -89.53875  9222%     -   91s
     0     0  -89.01708    0   11    0.98158  -89.01708  9169%     -   93s
     0     0  -88.92084    0   11    0.98158  -88.92084  9159%     -   93s
     0     0  -86.16138    0    9    0.98158  -86.16138  8878%     -   93s
     0     0  -86.16138    0    9    0.98158  -86.16138  8878%     -   96s
     0     0  -86.16138    0    9    0.98158  -86.16138  8878%     -  100s
     0     0  -86.15729    0    9    0.98158  -86.15729  8877%     -  100s
     0     0  -85.97832    0   11    0.98158  -85.97832  8859%     -  100s
     0     0  -85.97832    0   10    0.98158  -85.97832  8859%     -  100s
     0     0  -85.97832    0   10    0.98158  -85.97832  8859%     -  106s
     0     0  -85.97832    0    9    0.98158  -85.97832  8859%     -  108s
     0     0  -85.97832    0    9    0.98158  -85.97832  8859%     -  111s
     0     0  -85.97832    0    9    0.98158  -85.97832  8859%     -  116s
     0     0  -85.97832    0    9    0.98158  -85.97832  8859%     -  121s
     0     0  -85.97832    0    9    0.98158  -85.97832  8859%     -  124s
     0     0  -85.97832    0   10    0.98158  -85.97832  8859%     -  124s
     0     0  -85.97832    0   11    0.98158  -85.97832  8859%     -  124s
     0     0  -85.90547    0   11    0.98158  -85.90547  8852%     -  124s
     0     0  -85.90547    0   11    0.98158  -85.90547  8852%     -  126s
     0     0  -85.90547    0   11    0.98158  -85.90547  8852%     -  130s
     0     0  -85.88209    0   10    0.98158  -85.88209  8849%     -  133s
     0     0  -85.88209    0   10    0.98158  -85.88209  8849%     -  136s
H    0     0                       0.9775822  -85.88209  8885%     -  140s
     0     0  -85.88209    0   10    0.97758  -85.88209  8885%     -  145s
     0     0  -85.88209    0   10    0.97758  -85.88209  8885%     -  150s
     0     0  -85.88209    0   10    0.97758  -85.88209  8885%     -  156s
     0     0  -85.88209    0   10    0.97758  -85.88209  8885%     -  163s
     0     2  -77.45106    0   10    0.97758  -77.45106  8023%     -  164s
     3     6  -59.01789    2   12    0.97758  -63.72505  6619%  26.3  166s
    62    56  -39.33170    9   12    0.97758  -47.07235  4915%   8.9  177s
   118    99  -34.44331   14    5    0.97758  -47.07235  4915%   6.7  189s
   174   148  -28.53490   21    6    0.97758  -47.07235  4915%   5.8  202s
H  184   148                       0.9769746  -47.07235  4918%   5.8  206s
   262   197  -25.62825   32    3    0.97697  -47.07235  4918%   5.3  214s
   294   251  -24.70831   33    6    0.97697  -47.07235  4918%   5.1  224s
   430   359  -15.62925   50    3    0.97697  -47.07235  4918%   4.7  238s
   622   534 infeasible   71         0.97697  -39.21679  4114%   4.7  259s
   750   636   -2.19190   12    -    0.97697  -37.54473  3943%   4.5  268s
   902   770  -16.73440   27    4    0.97697  -36.74078  3861%   4.4  285s
  1086   948   -5.79289   44    -    0.97697  -35.79779  3764%   4.4  309s
  1309  1147  -20.56396   33    8    0.97697  -35.73070  3757%   4.5  324s
  1563  1179  -16.22869   17   11    0.97697  -35.73070  3757%   4.4  353s
  1565  1180  -16.85164   25    8    0.97697  -35.73070  3757%   4.4  361s
  1566  1181  -18.91887   14    9    0.97697  -35.73070  3757%   4.4  371s
  1570  1184  -24.79743    6   10    0.97697  -35.73070  3757%   4.4  389s
  1572  1185  -20.14713   37   10    0.97697  -35.73070  3757%   4.4  402s
  1578  1189   -9.09152   34   12    0.97697  -35.73070  3757%   4.4  416s
  1586  1194  -23.13098   40   13    0.97697  -35.73070  3757%   4.4  429s
  1590  1197  -12.12816   32   11    0.97697  -35.73070  3757%   4.4  448s
  1649  1222  -35.57611   20   11    0.97697  -35.73070  3757%   4.7  451s
  1681  1236  -24.37401   22    5    0.97697  -35.73070  3757%   4.7  460s
H 1708  1176                       0.9769746  -35.73070  3757%   4.7  469s
  1761  1203     cutoff   27         0.97697  -35.73070  3757%   4.7  488s
  1797  1226  -21.24033   29    4    0.97697  -35.73070  3757%   4.8  499s
  1845  1243     cutoff   31         0.97697  -35.73070  3757%   4.8  508s
  1897  1271   -3.45617   34    2    0.97697  -35.73070  3757%   4.7  521s
  1961  1280   -3.23969   39    4    0.97697  -35.73070  3757%   4.7  528s
  1998  1272  -10.34739   47    6    0.97697  -35.73070  3757%   4.7  547s
  2097  1335    0.28526   47    2    0.97697  -35.73070  3757%   4.7  573s
  2201  1384     cutoff   52         0.97697  -35.62522  3746%   4.7  580s
  2329  1430  -14.63331   35   10    0.97697  -35.22106  3705%   4.7  593s
  2463  1499   -2.90446   54    5    0.97697  -34.22763  3603%   4.7  615s
  2620  1502     cutoff   62         0.97697  -32.02620  3378%   4.8  644s
  2646  1493  -10.45513   40    3    0.97697  -32.02620  3378%   4.8  647s
  2649  1492  -18.06992   67    7    0.97697  -32.02620  3378%   4.8  653s
  2678  1611  -18.38641   48    5    0.97697  -31.82617  3358%   4.8  663s
  2844  1738   -0.23483   67    2    0.97697  -31.35158  3309%   4.9  683s
